(set-logic HORN)
(declare-fun state (Int Int (Array Int Int) Int Int (Array Int Int) Bool) Bool)
(assert (forall ((|A_0| Int) (|C_0| Int) (|B_0| (Array Int Int)) (|F_0| Int) (|D_0| Int) (|E_0| (Array Int Int)) (|.loc.8| Bool) (|.loc.15| Bool) (|.y.11| (Array Int Int)) (|.y.13| Int) (|.y.12| Int) (|.y.10| Int) (|.y.9| Int) (|.y.14| (Array Int Int))) (=> (and (and (and (= B_0 E_0) (= C_0 F_0)) (= A_0 D_0)) (not .loc.8)) (state |A_0| |C_0| |B_0| |F_0| |D_0| |E_0| |.loc.8|))))
(assert (forall ((|A_0| Int) (|C_0| Int) (|B_0| (Array Int Int)) (|F_0| Int) (|D_0| Int) (|E_0| (Array Int Int)) (|.loc.8| Bool) (|.loc.15| Bool) (|.y.11| (Array Int Int)) (|.y.13| Int) (|.y.12| Int) (|.y.10| Int) (|.y.9| Int) (|.y.14| (Array Int Int))) (=> (and (state |A_0| |C_0| |B_0| |F_0| |D_0| |E_0| |.loc.8|) (let ((.def_25 (select B_0 C_0))) (let ((.def_26 (store B_0 A_0 .def_25))) (let ((.def_27 (select E_0 F_0))) (let ((.def_28 (store E_0 D_0 .def_27))) (let ((.def_33 (= .def_27 0))) (let ((.def_35 (= .def_25 0))) (let ((.def_39 (not .def_35))) (let ((.def_40 (not .def_33))) (let ((.def_42 (not .loc.15))) (let ((.def_45 (= .def_26 .y.11))) (let ((.def_52 (= (+ D_0 (* (- 1) .y.13)) (- 1)))) (let ((.def_57 (= (+ F_0 (* (- 1) .y.12)) (- 1)))) (let ((.def_62 (= (+ C_0 (* (- 1) .y.10)) (- 1)))) (let ((.def_67 (= (+ A_0 (* (- 1) .y.9)) (- 1)))) (let ((.def_70 (= .def_28 .y.14))) (and (not .loc.8) (or (or (or (and (and (and (or (not (= A_0 D_0)) (not (= .def_26 .def_28))) .def_33) .def_35) .loc.15) (and (and (and (and (and (and (and (and .def_39 .def_40) .def_42) .def_45) .def_52) .def_57) .def_62) .def_67) .def_70)) (and (= F_0 .y.12) (and (= D_0 .y.13) (and (= E_0 .y.14) (and .def_67 (and .def_62 (and .def_45 (and .def_42 (and .def_33 .def_39))))))))) (and (= A_0 .y.9) (and (= C_0 .y.10) (and (= B_0 .y.11) (and .def_70 (and .def_57 (and .def_52 (and .def_42 (and .def_35 .def_40)))))))))))))))))))))))))) (state |.y.9| |.y.10| |.y.11| |.y.12| |.y.13| |.y.14| |.loc.15|))))
(assert (forall ((|A_0| Int) (|C_0| Int) (|B_0| (Array Int Int)) (|F_0| Int) (|D_0| Int) (|E_0| (Array Int Int)) (|.loc.8| Bool) (|.loc.15| Bool) (|.y.11| (Array Int Int)) (|.y.13| Int) (|.y.12| Int) (|.y.10| Int) (|.y.9| Int) (|.y.14| (Array Int Int))) (=> (state |A_0| |C_0| |B_0| |F_0| |D_0| |E_0| |.loc.8|) (not .loc.8))))
(check-sat)
